
--- Job bchfcnet.gms Start 02/08/22 17:23:00 34.3.0 rac355f3 WEX-WEI x86 64bit/MS Windows
--- Applying:
    C:\GAMS\34\gmsprmNT.txt
--- GAMS Parameters defined
    Input C:\Users\dekhi\Desktop\gamsworld\FCNetLib\test\bchfcnet.gms
    PageSize 0
    ScrDir C:\Users\dekhi\Desktop\gamsworld\FCNetLib\test\225a\
    SysDir C:\GAMS\34\
    LogOption 3
    ErrMsg 1
    ErrorLog 99
    IDE 1
    ResLim 3600
    LstTitleLeftAligned 1
Licensee: Eval License                                   S211214|0002AW-GEN
          Ostfalia Hochschule fuer angewandte Wissenschaften        DCE1645
          C:\Users\dekhi\Documents\GAMS\gamslice.txt
          License Admin: Mohamed Ali Dekhil, dekhil.medali@gmail.com       
          Evaluation license: Not for commercial or production use
GAMS 34.3.0   Copyright (C) 1987-2021 GAMS Development. All rights reserved
--- Starting compilation
--- bchfcnet.gms(34) 2 Mb
--- . decl.gms(15) 2 Mb
--- bchfcnet.gms(38) 2 Mb
--- . k20x380c.inc(801) 3 Mb
--- bchfcnet.gms(67) 3 Mb
--- . equs.gms(20) 3 Mb
--- bchfcnet.gms(97) 3 Mb
--- call rm -f bchout_i.gdx startcut.txt startheur.txt cuthist.gdx agap.txt rgap.txt cntfail.txt
--- bchfcnet.gms(118) 3 Mb
--- Starting execution: elapsed 0:00:00.087
--- bchfcnet.gms(859) 4 Mb
--- GDX File (execute_unload) C:\Users\dekhi\Desktop\gamsworld\FCNetLib\test\net.gdx
--- bchfcnet.gms(950) 4 Mb
--- GDXin=C:\Users\dekhi\Desktop\gamsworld\FCNetLib\test\points\k20x380c.gdx
--- GDX File (execute_load) C:\Users\dekhi\Desktop\gamsworld\FCNetLib\test\points\k20x380c.gdx
--- Generating MIP model master
--- bchfcnet.gms(954) 4 Mb
---   401 rows  761 columns  2,281 non-zeroes
---   380 discrete-columns
--- Executing CPLEX (Solvelink=2): elapsed 0:00:00.125

IBM ILOG CPLEX   34.3.0 rac355f3 Released Feb 25, 2021 WEI x86 64bit/MS Window

--- GAMS/Cplex Link licensed for continuous and discrete problems.

Reading parameter(s) from "C:\Users\dekhi\Desktop\gamsworld\FCNetLib\test\cplex.op2"
>>  mipstart 1
Finished reading from "C:\Users\dekhi\Desktop\gamsworld\FCNetLib\test\cplex.op2"

--- Space for names approximately 0.02 Mb
--- Use option 'names no' to turn use of names off
--- GMO memory 0.63 Mb (peak 0.64 Mb)
--- Dictionary memory 0.00 Mb
--- Cplex 20.1.0.0 link memory 0.02 Mb (peak 0.08 Mb)
--- Starting Cplex

Version identifier: 20.1.0.0 | 2020-11-10 | 9bedb6d68
CPXPARAM_Threads                                 1
CPXPARAM_MIP_Display                             4
CPXPARAM_TimeLimit                               3600
CPXPARAM_MIP_Tolerances_AbsMIPGap                0
CPXPARAM_MIP_Tolerances_MIPGap                   0
Generic callback                                 0x50
Processing 1 MIP starts.
MIP start 'm1' defined solution with objective 17159.0000.
1 of 1 MIP starts provided solutions.
MIP start 'm1' defined initial solution with objective 17159.0000.
Tried aggregator 1 time.
MIP Presolve eliminated 19 rows and 1 columns.
MIP Presolve added 38 rows and 0 columns.
Reduced MIP has 419 rows, 760 columns, and 1558 nonzeros.
Reduced MIP has 380 binaries, 0 generals, 0 SOSs, and 0 indicators.
Presolve time = 0.00 sec. (2.12 ticks)
Probing time = 0.00 sec. (0.08 ticks)
Tried aggregator 1 time.
Detecting symmetries...
Reduced MIP has 419 rows, 760 columns, and 1558 nonzeros.
Reduced MIP has 380 binaries, 0 generals, 0 SOSs, and 0 indicators.
Presolve time = 0.00 sec. (2.21 ticks)
Probing time = 0.00 sec. (0.08 ticks)
MIP emphasis: balance optimality and feasibility.
MIP search method: dynamic search.
Parallel mode: none, using 1 thread.
Tried aggregator 1 time.
LP Presolve eliminated 361 rows and 361 columns.
Aggregator did 19 substitutions.
Reduced LP has 39 rows, 380 columns, and 798 nonzeros.
Presolve time = 0.00 sec. (0.38 ticks)

Iteration log . . .
Iteration:     1   Dual objective     =          1235.000000
Initializing dual steep norms . . .
Root relaxation solution time = 0.01 sec. (0.70 ticks)

        Nodes                                         Cuts/
   Node  Left     Objective  IInf  Best Integer    Best Bound    ItCnt     Gap

*     0+    0                        17159.0000        0.0000           100.00%
Found incumbent of value 17159.000000 after 0.01 sec. (6.22 ticks)
      0     0     1858.4800    15    17159.0000     1858.4800       17   89.17%
      0     0    16612.4006    20    17159.0000      Cuts: 53      111    3.19%
      0     0    16799.8757    23    17159.0000      Cuts: 52      134    2.09%
      0     0    16936.6341    18    17159.0000      Cuts: 36      153    1.30%
      0     0    16989.7468    20    17159.0000      Cuts: 34      181    0.99%
      0     0    17008.0872    23    17159.0000      Cuts: 29      196    0.88%
Detecting symmetries...
      0     0    17021.0107    23    17159.0000      Cuts: 41      213    0.80%
      0     0    17033.1286    32    17159.0000      Cuts: 27      232    0.73%
      0     0    17038.8522    33    17159.0000      Cuts: 44      260    0.70%
      0     0    17053.0949    37    17159.0000      Cuts: 35      291    0.62%
      0     0    17059.9566    33    17159.0000      Cuts: 26      319    0.58%
      0     0    17063.8060    34    17159.0000      Cuts: 23      333    0.55%
      0     0    17066.2336    35    17159.0000      Cuts: 24      348    0.54%
      0     0    17069.0788    31    17159.0000      Cuts: 15      361    0.52%
      0     0    17070.2224    36    17159.0000       Cuts: 9      378    0.52%
      0     0    17070.8621    36    17159.0000      Cuts: 13      391    0.51%
Detecting symmetries...
      0     2    17070.8621    36    17159.0000    17070.8629      391    0.51%
Elapsed time = 0.28 sec. (253.62 ticks, tree = 0.01 MB, solutions = 1)

Cover cuts applied:  17
Implied bound cuts applied:  2
Flow cuts applied:  31
Mixed integer rounding cuts applied:  39
Flow path cuts applied:  4
Gomory fractional cuts applied:  5

Root node processing (before b&c):
  Real time             =    0.28 sec. (253.60 ticks)
Sequential b&c:
  Real time             =    0.06 sec. (107.15 ticks)
                          ------------
Total (root+branch&cut) =    0.34 sec. (360.75 ticks)

--- MIP status (101): integer optimal solution.
--- Cplex Time: 0.34sec (det. 360.75 ticks)

--- Fixing integer variables and solving final LP...

Version identifier: 20.1.0.0 | 2020-11-10 | 9bedb6d68
CPXPARAM_Advance                                 2
CPXPARAM_Threads                                 1
CPXPARAM_MIP_Display                             4
CPXPARAM_TimeLimit                               3600
CPXPARAM_MIP_Tolerances_AbsMIPGap                0
CPXPARAM_MIP_Tolerances_MIPGap                   0
Tried aggregator 1 time.
LP Presolve eliminated 400 rows and 761 columns.
All rows and columns eliminated.
Presolve time = 0.00 sec. (0.26 ticks)

--- Fixed MIP status (1): optimal.
--- Cplex Time: 0.00sec (det. 0.45 ticks)


Proven optimal solution
MIP Solution:        17159.000000    (1311 iterations, 74 nodes)
Final Solve:         17159.000000    (0 iterations)

Best possible:       17159.000000
Absolute gap:            0.000000
Relative gap:            0.000000

--- Reading solution for model master
*** Status: Normal completion
--- Job bchfcnet.gms Stop 02/08/22 17:23:00 elapsed 0:00:00.533
